% Número total de personas
n = 180;

% Número de opiniones posibles
m = 3;

% Distribución inicial de personas por opinión
p = [40, 55, 85];

% Valores de las opiniones
v = [23, 829, 836];

% Costos extras al mover a opiniones vacías
ce = [6860, 16049, 19160];

% Matriz de costos de mover de una opinión a otra
C = array2d(1..3, 1..3,
  [
    0,    3954,    1229,
    3902,    0,    3538,
    5042,    3334,    0
  ]);

% Costo total máximo permitido
C_max = 15370;

% Número máximo de movimientos permitidos
M_max = 25;
